SECTION Graph
Nodes 467
Edges 896
E 1 430 2
E 1 433 1
E 2 3 1
E 2 435 3
E 2 436 2
E 3 437 2
E 4 5 10
E 4 422 4
E 4 425 2
E 4 431 3
E 5 434 4
E 5 435 2
E 5 436 3
E 6 432 5
E 6 434 2
E 6 435 4
E 7 402 2
E 7 405 1
E 7 412 2
E 7 421 10
E 8 9 1
E 8 417 3
E 8 418 2
E 9 420 2
E 9 424 1
E 10 11 10
E 10 395 4
E 10 397 2
E 10 403 3
E 11 409 4
E 11 417 2
E 11 418 3
E 12 404 5
E 12 409 2
E 12 417 4
E 13 374 2
E 13 378 1
E 13 386 6
E 13 394 10
E 14 15 1
E 14 389 3
E 14 390 2
E 15 393 2
E 15 396 1
E 16 364 2
E 16 368 1
E 16 375 3
E 16 384 10
E 17 18 2
E 17 381 2
E 18 382 2
E 18 389 1
E 19 391 15
E 19 411 2
E 19 416 2
E 19 419 5
E 20 416 10
E 20 427 2
E 20 432 2
E 20 434 5
E 21 340 24
E 21 374 6
E 21 386 2
E 21 392 5
E 22 386 10
E 22 394 6
E 22 404 2
E 22 409 5
E 23 25 3
E 23 301 29
E 23 354 1
E 23 355 2
E 24 357 10
E 24 379 1
E 24 381 2
E 25 348 2
E 26 348 10
E 26 379 3
E 27 335 8
E 27 336 7
E 27 351 1
E 27 360 6
E 28 360 5
E 28 369 1
E 28 373 1
E 28 385 9
E 29 334 13
E 29 339 11
E 29 360 1
E 29 369 5
E 30 351 6
E 30 360 1
E 30 367 1
E 30 373 5
E 31 100 23
E 31 316 1
E 31 322 1
E 31 329 5
E 32 329 6
E 32 336 1
E 32 350 7
E 32 351 7
E 33 316 5
E 33 325 1
E 33 329 1
E 33 336 6
E 34 322 5
E 34 329 1
E 34 345 10
E 34 353 13
E 35 98 1
E 35 197 2
E 35 204 1
E 35 224 9
E 36 224 6
E 36 235 1
E 36 260 11
E 37 221 2
E 38 99 1
E 38 207 9
E 38 226 1
E 38 238 6
E 39 40 1
E 39 239 1
E 39 249 1
E 40 252 1
E 41 46 13
E 41 100 1
E 41 269 1
E 41 316 23
E 42 100 1
E 42 277 1
E 42 322 23
E 43 44 1
E 43 208 1
E 43 213 1
E 44 215 1
E 44 239 13
E 45 231 2
E 45 234 1
E 45 241 1
E 45 246 2
E 46 240 1
E 46 241 1
E 46 253 2
E 47 48 1
E 47 272 1
E 47 299 12
E 48 50 12
E 49 272 12
E 49 277 11
E 49 299 1
E 49 341 24
E 50 299 1
E 50 344 24
E 51 180 2
E 51 181 1
E 51 184 1
E 51 198 10
E 52 184 10
E 52 198 1
E 52 202 1
E 52 209 3
E 53 54 10
E 53 178 1
E 54 192 1
E 54 195 3
E 55 63 1
E 55 101 1
E 55 171 1
E 55 174 9
E 56 64 1
E 56 101 1
E 56 173 2
E 56 176 9
E 57 102 1
E 57 174 6
E 57 177 1
E 57 182 5
E 58 102 1
E 58 176 6
E 58 185 5
E 59 171 9
E 59 174 1
E 59 177 6
E 60 173 9
E 60 176 2
E 60 188 11
E 61 69 5
E 61 103 1
E 61 165 1
E 61 167 6
E 62 70 5
E 62 103 1
E 62 166 2
E 62 169 6
E 63 104 1
E 63 167 9
E 63 170 1
E 64 104 1
E 64 169 9
E 64 172 2
E 65 165 6
E 65 167 1
E 65 170 9
E 66 166 6
E 66 169 2
E 66 172 9
E 67 74 1
E 67 105 1
E 67 157 1
E 67 160 9
E 68 75 1
E 68 105 1
E 68 159 2
E 68 162 9
E 69 106 1
E 69 160 6
E 69 163 1
E 70 106 1
E 70 162 6
E 70 164 2
E 71 157 9
E 71 160 1
E 71 163 6
E 72 159 9
E 72 162 2
E 72 164 6
E 73 107 1
E 73 143 18
E 73 152 2
E 73 155 6
E 74 108 1
E 74 153 9
E 74 156 1
E 75 108 1
E 75 155 9
E 75 158 2
E 76 139 24
E 76 153 1
E 76 156 9
E 77 152 6
E 77 155 2
E 77 158 9
E 78 138 5
E 78 143 2
E 78 144 1
E 78 150 12
E 79 144 12
E 79 150 1
E 80 123 6
E 80 127 1
E 81 127 12
E 81 140 4
E 82 87 13
E 82 131 1
E 82 132 1
E 83 131 1
E 83 134 1
E 84 85 1
E 84 146 1
E 84 147 1
E 85 148 1
E 86 113 1
E 86 114 1
E 87 113 1
E 87 116 1
E 88 89 1
E 88 128 1
E 88 129 1
E 89 130 1
E 89 147 13
E 90 134 11
E 90 149 2
E 91 92 1
E 91 151 1
E 93 109 1
E 93 110 7
E 93 112 10
E 94 96 5
E 94 109 10
E 94 112 1
E 94 142 24
E 95 96 10
E 95 109 5
E 96 139 27
E 97 413 180
E 98 195 2
E 98 221 9
E 99 204 9
E 99 224 1
E 99 235 6
E 100 273 1
E 101 104 1
E 101 175 9
E 102 175 6
E 102 183 5
E 103 106 5
E 103 168 6
E 104 168 9
E 105 108 1
E 105 161 9
E 106 161 6
E 107 142 18
E 107 154 6
E 108 154 9
E 110 111 1
E 110 120 10
E 111 117 6
E 111 121 10
E 112 120 7
E 112 124 9
E 112 143 24
E 113 115 1
E 114 115 1
E 114 117 2
E 115 116 1
E 115 118 2
E 116 119 2
E 116 132 13
E 117 118 1
E 117 126 10
E 118 119 1
E 118 128 10
E 119 130 10
E 119 135 13
E 120 121 1
E 120 122 1
E 121 123 1
E 121 126 6
E 122 123 1
E 122 127 6
E 123 129 6
E 124 125 1
E 124 138 12
E 125 127 4
E 125 140 12
E 126 128 1
E 126 129 1
E 128 130 1
E 130 145 13
E 131 133 1
E 132 133 1
E 132 135 2
E 133 134 1
E 133 136 2
E 134 137 2
E 135 136 1
E 135 145 10
E 136 137 1
E 136 146 10
E 137 148 10
E 137 149 11
E 138 140 1
E 139 141 1
E 140 144 5
E 141 142 1
E 141 153 24
E 142 143 1
E 145 146 1
E 145 147 1
E 146 148 1
E 148 151 11
E 149 151 10
E 150 152 6
E 153 154 1
E 154 155 1
E 156 157 1
E 158 159 1
E 160 161 1
E 161 162 1
E 163 165 5
E 164 166 5
E 167 168 1
E 168 169 1
E 170 171 1
E 172 173 1
E 174 175 1
E 175 176 1
E 177 181 5
E 178 179 1
E 178 192 10
E 179 180 1
E 179 193 10
E 180 194 10
E 181 182 1
E 182 183 1
E 182 184 1
E 183 185 1
E 183 186 1
E 184 186 1
E 185 187 1
E 185 188 2
E 186 187 1
E 186 202 10
E 187 190 2
E 187 205 10
E 188 189 1
E 188 190 1
E 189 191 1
E 189 214 11
E 190 210 10
E 190 211 10
E 191 201 6
E 191 216 11
E 192 193 1
E 192 197 3
E 193 194 1
E 193 199 3
E 194 196 1
E 194 200 3
E 195 197 1
E 196 198 1
E 196 203 3
E 197 199 1
E 198 206 3
E 199 200 1
E 199 204 2
E 200 203 1
E 200 207 2
E 201 208 2
E 201 225 11
E 202 205 1
E 202 212 3
E 203 206 1
E 203 226 11
E 204 207 1
E 205 211 2
E 206 209 1
E 206 227 11
E 207 218 4
E 208 210 1
E 209 212 1
E 209 229 11
E 210 213 1
E 210 228 10
E 211 214 1
E 211 217 2
E 212 218 2
E 212 219 3
E 213 215 1
E 213 230 10
E 214 216 1
E 214 220 3
E 215 233 10
E 215 244 13
E 216 222 3
E 216 225 6
E 217 219 1
E 217 234 10
E 218 223 3
E 218 232 9
E 219 220 1
E 219 223 2
E 220 222 1
E 220 247 11
E 221 224 1
E 222 231 6
E 222 250 11
E 223 237 8
E 223 242 9
E 225 228 2
E 225 231 3
E 226 227 1
E 226 243 6
E 227 229 1
E 227 248 6
E 228 230 1
E 228 234 2
E 229 232 1
E 229 251 6
E 230 233 1
E 230 236 2
E 231 237 2
E 232 242 3
E 232 254 6
E 233 240 2
E 233 265 14
E 234 236 1
E 235 238 1
E 235 262 11
E 236 240 1
E 236 241 1
E 237 246 2
E 237 258 9
E 238 243 1
E 238 280 17
E 239 244 1
E 240 245 1
E 242 247 1
E 242 256 6
E 243 248 1
E 243 264 11
E 244 249 1
E 244 269 12
E 245 255 4
E 245 270 12
E 246 253 2
E 246 263 9
E 247 250 1
E 247 257 6
E 248 251 1
E 249 252 1
E 249 265 10
E 250 258 6
E 250 259 6
E 251 254 1
E 251 271 11
E 252 268 10
E 252 272 11
E 253 266 9
E 254 256 3
E 254 261 6
E 255 269 8
E 255 291 18
E 256 257 1
E 256 267 6
E 257 259 1
E 257 284 11
E 258 263 2
E 258 274 6
E 259 274 6
E 259 286 11
E 260 262 1
E 260 276 6
E 261 267 3
E 261 275 5
E 262 264 2
E 262 278 6
E 263 266 2
E 263 279 6
E 264 271 2
E 264 282 6
E 265 268 1
E 265 273 2
E 266 270 1
E 266 283 6
E 267 281 5
E 267 313 24
E 268 277 2
E 269 273 1
E 270 285 6
E 271 275 1
E 271 287 6
E 273 277 1
E 274 279 2
E 274 296 11
E 275 281 3
E 275 288 6
E 276 278 1
E 276 289 7
E 278 280 1
E 278 290 7
E 279 283 2
E 279 309 17
E 280 282 1
E 280 293 7
E 281 284 1
E 281 292 6
E 282 287 2
E 282 295 7
E 283 285 1
E 283 311 17
E 284 286 1
E 284 294 6
E 285 291 4
E 285 314 17
E 286 296 6
E 286 297 6
E 287 288 1
E 287 298 7
E 288 292 3
E 288 300 7
E 289 290 1
E 289 301 6
E 290 293 1
E 290 302 6
E 291 313 13
E 291 323 17
E 292 294 1
E 292 303 7
E 293 295 1
E 294 297 1
E 294 306 7
E 295 298 2
E 295 304 6
E 296 305 6
E 296 325 16
E 297 305 6
E 297 307 7
E 298 300 1
E 298 308 6
E 299 343 24
E 300 303 3
E 300 310 6
E 301 302 1
E 302 304 2
E 302 354 29
E 303 306 1
E 303 315 6
E 304 308 2
E 304 312 5
E 305 309 2
E 305 319 7
E 306 307 1
E 306 317 6
E 307 319 6
E 307 320 6
E 308 310 1
E 308 318 5
E 309 311 2
E 309 324 7
E 310 315 3
E 310 321 5
E 311 314 1
E 311 327 7
E 312 318 2
E 312 356 24
E 313 316 1
E 313 325 5
E 314 323 4
E 314 330 7
E 315 317 1
E 315 326 5
E 317 320 1
E 317 328 5
E 318 321 1
E 318 361 24
E 319 324 2
E 319 332 6
E 320 331 5
E 320 332 6
E 321 326 3
E 321 364 24
E 322 338 10
E 323 334 7
E 323 335 7
E 324 327 2
E 324 333 6
E 325 334 6
E 326 328 1
E 326 342 9
E 327 330 1
E 327 337 6
E 328 331 1
E 328 371 24
E 330 335 4
E 330 339 6
E 331 340 6
E 331 374 24
E 332 333 2
E 332 340 5
E 333 337 2
E 334 336 1
E 335 397 35
E 337 339 1
E 338 341 1
E 338 345 5
E 339 346 5
E 340 346 5
E 341 343 1
E 341 347 5
E 342 370 15
E 343 344 1
E 343 349 5
E 344 352 5
E 345 347 1
E 345 358 6
E 346 369 11
E 346 392 24
E 347 349 1
E 347 359 6
E 348 355 3
E 349 352 1
E 349 363 6
E 350 358 4
E 350 366 7
E 351 353 1
E 352 365 6
E 353 366 6
E 353 367 6
E 354 356 2
E 354 357 2
E 355 357 1
E 355 379 10
E 356 361 2
E 356 362 2
E 357 362 2
E 358 359 1
E 358 372 7
E 359 363 1
E 359 376 7
E 361 364 1
E 361 368 2
E 362 368 2
E 362 381 10
E 363 365 1
E 364 370 3
E 365 380 7
E 366 372 4
E 366 398 20
E 367 377 5
E 367 387 13
E 368 382 10
E 369 383 9
E 370 371 1
E 370 375 2
E 371 374 1
E 371 378 2
E 372 376 1
E 372 401 20
E 373 377 1
E 373 388 9
E 375 378 1
E 375 390 10
E 376 380 2
E 377 391 10
E 378 393 10
E 380 387 6
E 381 382 2
E 382 384 1
E 383 385 1
E 383 406 15
E 384 389 2
E 384 390 3
E 385 388 1
E 385 408 15
E 386 395 5
E 387 407 14
E 388 391 2
E 388 411 15
E 390 393 1
E 391 398 5
E 392 395 2
E 392 397 4
E 393 394 1
E 394 396 2
E 395 409 10
E 396 404 6
E 397 399 3
E 398 401 4
E 398 419 15
E 399 400 1
E 399 403 2
E 400 402 1
E 400 405 2
E 401 407 3
E 401 425 15
E 402 406 2
E 403 405 1
E 403 418 10
E 405 420 10
E 406 408 1
E 406 412 2
E 407 410 1
E 407 428 15
E 408 411 1
E 408 414 2
E 410 413 1
E 410 429 15
E 411 415 2
E 412 414 1
E 412 423 10
E 413 430 15
E 414 415 1
E 414 426 10
E 415 416 2
E 415 427 10
E 416 422 5
E 418 420 1
E 419 422 2
E 419 425 4
E 420 421 1
E 421 423 2
E 421 424 2
E 422 434 10
E 423 426 1
E 424 432 6
E 425 428 3
E 426 427 1
E 428 429 1
E 428 431 2
E 429 430 1
E 429 433 2
E 431 433 1
E 431 436 10
E 433 437 10
E 436 437 1
E 1 438 100000
E 2 438 100000
E 3 438 100000
E 4 439 100000
E 5 439 100000
E 6 439 100000
E 7 440 100000
E 8 440 100000
E 9 440 100000
E 10 441 100000
E 11 441 100000
E 12 441 100000
E 13 442 100000
E 14 442 100000
E 15 442 100000
E 16 443 100000
E 17 443 100000
E 18 443 100000
E 19 444 100000
E 20 444 100000
E 21 445 100000
E 22 445 100000
E 23 446 100000
E 24 446 100000
E 25 447 100000
E 26 447 100000
E 27 448 100000
E 28 448 100000
E 29 448 100000
E 30 448 100000
E 31 449 100000
E 32 449 100000
E 33 449 100000
E 34 449 100000
E 35 450 100000
E 36 450 100000
E 37 450 100000
E 38 450 100000
E 39 451 100000
E 40 451 100000
E 41 451 100000
E 42 451 100000
E 43 452 100000
E 44 452 100000
E 45 452 100000
E 46 452 100000
E 47 453 100000
E 48 453 100000
E 49 453 100000
E 50 453 100000
E 51 454 100000
E 52 454 100000
E 53 455 100000
E 54 455 100000
E 55 456 100000
E 56 456 100000
E 57 456 100000
E 58 456 100000
E 59 456 100000
E 60 456 100000
E 61 457 100000
E 62 457 100000
E 63 457 100000
E 64 457 100000
E 65 457 100000
E 66 457 100000
E 67 458 100000
E 68 458 100000
E 69 458 100000
E 70 458 100000
E 71 458 100000
E 72 458 100000
E 73 459 100000
E 74 459 100000
E 75 459 100000
E 76 459 100000
E 77 459 100000
E 78 460 100000
E 79 460 100000
E 80 461 100000
E 81 461 100000
E 82 462 100000
E 83 462 100000
E 84 462 100000
E 85 462 100000
E 86 463 100000
E 87 463 100000
E 88 463 100000
E 89 463 100000
E 90 464 100000
E 91 464 100000
E 92 464 100000
E 93 465 100000
E 94 465 100000
E 95 466 100000
E 96 466 100000
E 97 467 100000
E 98 450 100000
E 99 450 100000
E 100 451 100000
E 101 456 100000
E 102 456 100000
E 103 457 100000
E 104 457 100000
E 105 458 100000
E 106 458 100000
E 107 459 100000
E 108 459 100000
END

SECTION Terminals
Terminals 30
T 438
T 439
T 440
T 441
T 442
T 443
T 444
T 445
T 446
T 447
T 448
T 449
T 450
T 451
T 452
T 453
T 454
T 455
T 456
T 457
T 458
T 459
T 460
T 461
T 462
T 463
T 464
T 465
T 466
T 467
END

EOF
